\ENCODING=ISO-8859-1
\Problem name: ilog.cplex

Minimize
 obj: - 10 x(1)#0 - x(2)#1
Subject To
 c1: x(1)#0 + x(2)#1 + x(3)#2  = 10
 c3: x(1)#0 + x(4)#3  = 6
 c5: 0.5 x(1)#0 + x(2)#1 + x(5)#4  = 8
End
